(set-logic QF_UF)
(declare-fun A1 () Bool)
(declare-fun A2 () Bool)
(declare-fun A4 () Bool)
(declare-fun A5 () Bool)
(declare-fun A6 () Bool)
(declare-fun A7 () Bool)
(declare-fun A8 () Bool)
(declare-fun A9 () Bool)
(declare-fun A10 () Bool)
(declare-fun A11 () Bool)
(declare-fun A12 () Bool)
(declare-fun A13 () Bool)
(declare-fun A14 () Bool)
(declare-fun A15 () Bool)
(declare-fun A16 () Bool)
(declare-fun A17 () Bool)
(declare-fun A18 () Bool)
(declare-fun A19 () Bool)
(declare-fun A20 () Bool)
(declare-fun A21 () Bool)
(declare-fun A22 () Bool)
(declare-fun A23 () Bool)
(declare-fun A24 () Bool)
(assert (let ((.def_0 (not A1))) (let ((.def_1 (or .def_0 A5))) (let ((.def_2 (and A17 A13))) (let ((.def_3 (not .def_2))) (let ((.def_4 (or .def_3 .def_1))) (let ((.def_5 (and A2 A15))) (let ((.def_6 (and .def_0 A10))) (let ((.def_7 (not .def_6))) (let ((.def_8 (and .def_7 .def_5))) (let ((.def_9 (not .def_8))) (let ((.def_10 (and .def_9 .def_4))) (let ((.def_11 (not A10))) (let ((.def_12 (or .def_11 A6))) (let ((.def_13 (and A24 A10))) (let ((.def_14 (not .def_13))) (let ((.def_15 (or .def_14 .def_12))) (let ((.def_16 (or A2 A10))) (let ((.def_17 (not .def_16))) (let ((.def_18 (not A8))) (let ((.def_19 (and .def_18 A2))) (let ((.def_20 (not .def_19))) (let ((.def_21 (and .def_20 .def_17))) (let ((.def_22 (= .def_21 .def_15))) (let ((.def_23 (or .def_22 .def_10))) (let ((.def_24 (not .def_23))) (let ((.def_25 (or A21 A7))) (let ((.def_26 (or A13 .def_18))) (let ((.def_27 (or .def_26 .def_25))) (let ((.def_28 (and A18 A14))) (let ((.def_29 (= A17 A16))) (let ((.def_30 (= .def_29 .def_28))) (let ((.def_31 (and .def_30 .def_27))) (let ((.def_32 (not A19))) (let ((.def_33 (not A9))) (let ((.def_34 (and .def_33 .def_32))) (let ((.def_35 (not .def_34))) (let ((.def_36 (or A9 A4))) (let ((.def_37 (not .def_36))) (let ((.def_38 (and .def_37 .def_35))) (let ((.def_39 (not .def_38))) (let ((.def_40 (not A4))) (let ((.def_41 (not A24))) (let ((.def_42 (or .def_41 .def_40))) (let ((.def_43 (and A4 .def_18))) (let ((.def_44 (or .def_43 .def_42))) (let ((.def_45 (not .def_44))) (let ((.def_46 (and .def_45 .def_39))) (let ((.def_47 (or .def_46 .def_31))) (let ((.def_48 (or .def_47 .def_24))) (let ((.def_49 (not A22))) (let ((.def_50 (and A16 .def_49))) (let ((.def_51 (not .def_50))) (let ((.def_52 (not A18))) (let ((.def_53 (and A12 .def_52))) (let ((.def_54 (and .def_53 .def_51))) (let ((.def_55 (and A20 .def_18))) (let ((.def_56 (not .def_55))) (let ((.def_57 (not A21))) (let ((.def_58 (and .def_57 .def_18))) (let ((.def_59 (and .def_58 .def_56))) (let ((.def_60 (not .def_59))) (let ((.def_61 (and .def_60 .def_54))) (let ((.def_62 (and A8 A13))) (let ((.def_63 (not .def_62))) (let ((.def_64 (= A8 A18))) (let ((.def_65 (not .def_64))) (let ((.def_66 (= .def_65 .def_63))) (let ((.def_67 (or A11 A17))) (let ((.def_68 (not .def_67))) (let ((.def_69 (and A5 A16))) (let ((.def_70 (or .def_69 .def_68))) (let ((.def_71 (or .def_70 .def_66))) (let ((.def_72 (not .def_71))) (let ((.def_73 (or .def_72 .def_61))) (let ((.def_74 (not .def_73))) (let ((.def_75 (not A12))) (let ((.def_76 (not A11))) (let ((.def_77 (or .def_76 .def_75))) (let ((.def_78 (or .def_49 .def_75))) (let ((.def_79 (not .def_78))) (let ((.def_80 (and .def_79 .def_77))) (let ((.def_81 (not A2))) (let ((.def_82 (or .def_81 A8))) (let ((.def_83 (not A13))) (let ((.def_84 (or .def_83 A16))) (let ((.def_85 (not .def_84))) (let ((.def_86 (or .def_85 .def_82))) (let ((.def_87 (and .def_86 .def_80))) (let ((.def_88 (not A5))) (let ((.def_89 (or .def_88 .def_40))) (let ((.def_90 (and A19 A15))) (let ((.def_91 (not .def_90))) (let ((.def_92 (and .def_91 .def_89))) (let ((.def_93 (not .def_92))) (let ((.def_94 (or A8 A21))) (let ((.def_95 (not .def_94))) (let ((.def_96 (= A23 A24))) (let ((.def_97 (not .def_96))) (let ((.def_98 (and .def_97 .def_95))) (let ((.def_99 (not .def_98))) (let ((.def_100 (or .def_99 .def_93))) (let ((.def_101 (not .def_100))) (let ((.def_102 (and .def_101 .def_87))) (let ((.def_103 (or .def_102 .def_74))) (let ((.def_104 (not .def_103))) (let ((.def_105 (or .def_104 .def_48))) .def_105)))))))))))))))))))))))))))))))))))))))))))))))))))))))))))))))))))))))))))))))))))))))))))))))))))))))))))
(check-sat)
